\* sidsproblem *\
Minimize
OBJ: x__E_70_
Subject To
_C1: x__0_1_ + x__0_2_ + x__0_3_ + x__0_4_ + x__0_5_ + x__0_6_ + x__0_7_
 + x__0_8_ + x__0_9_ = 1
_C10: x__4_1_ + 2 x__4_2_ + 3 x__4_3_ + 4 x__4_4_ + 5 x__4_5_ + 6 x__4_6_
 + 7 x__4_7_ + 8 x__4_8_ + 9 x__4_9_ - 916895 x__E_4_ = 0
_C100: x__49_1_ + 2 x__49_2_ + 3 x__49_3_ + 4 x__49_4_ + 5 x__49_5_
 + 6 x__49_6_ + 7 x__49_7_ + 8 x__49_8_ + 9 x__49_9_
 - 3.8543953253e+17 x__E_49_ = 0
_C101: x__50_1_ + x__50_2_ + x__50_3_ + x__50_4_ + x__50_5_ + x__50_6_
 + x__50_7_ + x__50_8_ + x__50_9_ = 1.61884603663e+17
_C102: x__50_1_ + 2 x__50_2_ + 3 x__50_3_ + 4 x__50_4_ + 5 x__50_5_
 + 6 x__50_6_ + 7 x__50_7_ + 8 x__50_8_ + 9 x__50_9_
 - 1.61884603663e+17 x__E_50_ = 0
_C103: x__51_1_ + x__51_2_ + x__51_3_ + x__51_4_ + x__51_5_ + x__51_6_
 + x__51_7_ + x__51_8_ + x__51_9_ = 6.34841582991e+16
_C104: x__51_1_ + 2 x__51_2_ + 3 x__51_3_ + 4 x__51_4_ + 5 x__51_5_
 + 6 x__51_6_ + 7 x__51_7_ + 8 x__51_8_ + 9 x__51_9_
 - 6.34841582991e+16 x__E_51_ = 0
_C105: x__52_1_ + x__52_2_ + x__52_3_ + x__52_4_ + x__52_5_ + x__52_6_
 + x__52_7_ + x__52_8_ + x__52_9_ = 2.31961347631e+16
_C106: x__52_1_ + 2 x__52_2_ + 3 x__52_3_ + 4 x__52_4_ + 5 x__52_5_
 + 6 x__52_6_ + 7 x__52_7_ + 8 x__52_8_ + 9 x__52_9_
 - 2.31961347631e+16 x__E_52_ = 0
_C107: x__53_1_ + x__53_2_ + x__53_3_ + x__53_4_ + x__53_5_ + x__53_6_
 + x__53_7_ + x__53_8_ + x__53_9_ = 7.87793256106e+15
_C108: x__53_1_ + 2 x__53_2_ + 3 x__53_3_ + 4 x__53_4_ + 5 x__53_5_
 + 6 x__53_6_ + 7 x__53_7_ + 8 x__53_8_ + 9 x__53_9_
 - 7.87793256106e+15 x__E_53_ = 0
_C109: x__54_1_ + x__54_2_ + x__54_3_ + x__54_4_ + x__54_5_ + x__54_6_
 + x__54_7_ + x__54_8_ + x__54_9_ = 2.48008988033e+15
_C11: x__5_1_ + x__5_2_ + x__5_3_ + x__5_4_ + x__5_5_ + x__5_6_ + x__5_7_
 + x__5_8_ + x__5_9_ = 12103014
_C110: x__54_1_ + 2 x__54_2_ + 3 x__54_3_ + 4 x__54_4_ + 5 x__54_5_
 + 6 x__54_6_ + 7 x__54_7_ + 8 x__54_8_ + 9 x__54_9_
 - 2.48008988033e+15 x__E_54_ = 0
_C111: x__55_1_ + x__55_2_ + x__55_3_ + x__55_4_ + x__55_5_ + x__55_6_
 + x__55_7_ + x__55_8_ + x__55_9_ = 7.21480692461e+14
_C112: x__55_1_ + 2 x__55_2_ + 3 x__55_3_ + 4 x__55_4_ + 5 x__55_5_
 + 6 x__55_6_ + 7 x__55_7_ + 8 x__55_8_ + 9 x__55_9_
 - 7.21480692461e+14 x__E_55_ = 0
_C113: x__56_1_ + x__56_2_ + x__56_3_ + x__56_4_ + x__56_5_ + x__56_6_
 + x__56_7_ + x__56_8_ + x__56_9_ = 1.93253756909e+14
_C114: x__56_1_ + 2 x__56_2_ + 3 x__56_3_ + 4 x__56_4_ + 5 x__56_5_
 + 6 x__56_6_ + 7 x__56_7_ + 8 x__56_8_ + 9 x__56_9_
 - 1.93253756909e+14 x__E_56_ = 0
_C115: x__57_1_ + x__57_2_ + x__57_3_ + x__57_4_ + x__57_5_ + x__57_6_
 + x__57_7_ + x__57_8_ + x__57_9_ = 4.74658350303e+13
_C116: x__57_1_ + 2 x__57_2_ + 3 x__57_3_ + 4 x__57_4_ + 5 x__57_5_
 + 6 x__57_6_ + 7 x__57_7_ + 8 x__57_8_ + 9 x__57_9_
 - 4.74658350303e+13 x__E_57_ = 0
_C117: x__58_1_ + x__58_2_ + x__58_3_ + x__58_4_ + x__58_5_ + x__58_6_
 + x__58_7_ + x__58_8_ + x__58_9_ = 1.06388940585e+13
_C118: x__58_1_ + 2 x__58_2_ + 3 x__58_3_ + 4 x__58_4_ + 5 x__58_5_
 + 6 x__58_6_ + 7 x__58_7_ + 8 x__58_8_ + 9 x__58_9_
 - 1.06388940585e+13 x__E_58_ = 0
_C119: x__59_1_ + x__59_2_ + x__59_3_ + x__59_4_ + x__59_5_ + x__59_6_
 + x__59_7_ + x__59_8_ + x__59_9_ = 2.16384285936e+12
_C12: x__5_1_ + 2 x__5_2_ + 3 x__5_3_ + 4 x__5_4_ + 5 x__5_5_ + 6 x__5_6_
 + 7 x__5_7_ + 8 x__5_8_ + 9 x__5_9_ - 12103014 x__E_5_ = 0
_C120: x__59_1_ + 2 x__59_2_ + 3 x__59_3_ + 4 x__59_4_ + 5 x__59_5_
 + 6 x__59_6_ + 7 x__59_7_ + 8 x__59_8_ + 9 x__59_9_
 - 2.16384285936e+12 x__E_59_ = 0
_C121: x__60_1_ + x__60_2_ + x__60_3_ + x__60_4_ + x__60_5_ + x__60_6_
 + x__60_7_ + x__60_8_ + x__60_9_ = 396704524216
_C122: x__60_1_ + 2 x__60_2_ + 3 x__60_3_ + 4 x__60_4_ + 5 x__60_5_
 + 6 x__60_6_ + 7 x__60_7_ + 8 x__60_8_ + 9 x__60_9_ - 396704524216 x__E_60_
 = 0
_C123: x__61_1_ + x__61_2_ + x__61_3_ + x__61_4_ + x__61_5_ + x__61_6_
 + x__61_7_ + x__61_8_ + x__61_9_ = 65033528560
_C124: x__61_1_ + 2 x__61_2_ + 3 x__61_3_ + 4 x__61_4_ + 5 x__61_5_
 + 6 x__61_6_ + 7 x__61_7_ + 8 x__61_8_ + 9 x__61_9_ - 65033528560 x__E_61_
 = 0
_C125: x__62_1_ + x__62_2_ + x__62_3_ + x__62_4_ + x__62_5_ + x__62_6_
 + x__62_7_ + x__62_8_ + x__62_9_ = 9440350920
_C126: x__62_1_ + 2 x__62_2_ + 3 x__62_3_ + 4 x__62_4_ + 5 x__62_5_
 + 6 x__62_6_ + 7 x__62_7_ + 8 x__62_8_ + 9 x__62_9_ - 9440350920 x__E_62_ = 0
_C127: x__63_1_ + x__63_2_ + x__63_3_ + x__63_4_ + x__63_5_ + x__63_6_
 + x__63_7_ + x__63_8_ + x__63_9_ = 1198774720
_C128: x__63_1_ + 2 x__63_2_ + 3 x__63_3_ + 4 x__63_4_ + 5 x__63_5_
 + 6 x__63_6_ + 7 x__63_7_ + 8 x__63_8_ + 9 x__63_9_ - 1198774720 x__E_63_ = 0
_C129: x__64_1_ + x__64_2_ + x__64_3_ + x__64_4_ + x__64_5_ + x__64_6_
 + x__64_7_ + x__64_8_ + x__64_9_ = 131115985
_C13: x__6_1_ + x__6_2_ + x__6_3_ + x__6_4_ + x__6_5_ + x__6_6_ + x__6_7_
 + x__6_8_ + x__6_9_ = 131115985
_C130: x__64_1_ + 2 x__64_2_ + 3 x__64_3_ + 4 x__64_4_ + 5 x__64_5_
 + 6 x__64_6_ + 7 x__64_7_ + 8 x__64_8_ + 9 x__64_9_ - 131115985 x__E_64_ = 0
_C131: x__65_1_ + x__65_2_ + x__65_3_ + x__65_4_ + x__65_5_ + x__65_6_
 + x__65_7_ + x__65_8_ + x__65_9_ = 12103014
_C132: x__65_1_ + 2 x__65_2_ + 3 x__65_3_ + 4 x__65_4_ + 5 x__65_5_
 + 6 x__65_6_ + 7 x__65_7_ + 8 x__65_8_ + 9 x__65_9_ - 12103014 x__E_65_ = 0
_C133: x__66_1_ + x__66_2_ + x__66_3_ + x__66_4_ + x__66_5_ + x__66_6_
 + x__66_7_ + x__66_8_ + x__66_9_ = 916895
_C134: x__66_1_ + 2 x__66_2_ + 3 x__66_3_ + 4 x__66_4_ + 5 x__66_5_
 + 6 x__66_6_ + 7 x__66_7_ + 8 x__66_8_ + 9 x__66_9_ - 916895 x__E_66_ = 0
_C135: x__67_1_ + x__67_2_ + x__67_3_ + x__67_4_ + x__67_5_ + x__67_6_
 + x__67_7_ + x__67_8_ + x__67_9_ = 54740
_C136: x__67_1_ + 2 x__67_2_ + 3 x__67_3_ + 4 x__67_4_ + 5 x__67_5_
 + 6 x__67_6_ + 7 x__67_7_ + 8 x__67_8_ + 9 x__67_9_ - 54740 x__E_67_ = 0
_C137: x__68_1_ + x__68_2_ + x__68_3_ + x__68_4_ + x__68_5_ + x__68_6_
 + x__68_7_ + x__68_8_ + x__68_9_ = 2415
_C138: x__68_1_ + 2 x__68_2_ + 3 x__68_3_ + 4 x__68_4_ + 5 x__68_5_
 + 6 x__68_6_ + 7 x__68_7_ + 8 x__68_8_ + 9 x__68_9_ - 2415 x__E_68_ = 0
_C139: x__69_1_ + x__69_2_ + x__69_3_ + x__69_4_ + x__69_5_ + x__69_6_
 + x__69_7_ + x__69_8_ + x__69_9_ = 70
_C14: x__6_1_ + 2 x__6_2_ + 3 x__6_3_ + 4 x__6_4_ + 5 x__6_5_ + 6 x__6_6_
 + 7 x__6_7_ + 8 x__6_8_ + 9 x__6_9_ - 131115985 x__E_6_ = 0
_C140: x__69_1_ + 2 x__69_2_ + 3 x__69_3_ + 4 x__69_4_ + 5 x__69_5_
 + 6 x__69_6_ + 7 x__69_7_ + 8 x__69_8_ + 9 x__69_9_ - 70 x__E_69_ = 0
_C141: x__70_1_ + x__70_2_ + x__70_3_ + x__70_4_ + x__70_5_ + x__70_6_
 + x__70_7_ + x__70_8_ + x__70_9_ = 1
_C142: x__70_1_ + 2 x__70_2_ + 3 x__70_3_ + 4 x__70_4_ + 5 x__70_5_
 + 6 x__70_6_ + 7 x__70_7_ + 8 x__70_8_ + 9 x__70_9_ - x__E_70_ = 0
_C143: x__0_1_ + x__10_1_ + x__11_1_ + x__12_1_ + x__13_1_ + x__14_1_
 + x__15_1_ + x__16_1_ + x__17_1_ + x__18_1_ + x__19_1_ + x__1_1_ + x__20_1_
 + x__21_1_ + x__22_1_ + x__23_1_ + x__24_1_ + x__25_1_ + x__26_1_ + x__27_1_
 + x__28_1_ + x__29_1_ + x__2_1_ + x__30_1_ + x__31_1_ + x__32_1_ + x__33_1_
 + x__34_1_ + x__35_1_ + x__36_1_ + x__37_1_ + x__38_1_ + x__39_1_ + x__3_1_
 + x__40_1_ + x__41_1_ + x__42_1_ + x__43_1_ + x__44_1_ + x__45_1_ + x__46_1_
 + x__47_1_ + x__48_1_ + x__49_1_ + x__4_1_ + x__50_1_ + x__51_1_ + x__52_1_
 + x__53_1_ + x__54_1_ + x__55_1_ + x__56_1_ + x__57_1_ + x__58_1_ + x__59_1_
 + x__5_1_ + x__60_1_ + x__61_1_ + x__62_1_ + x__63_1_ + x__64_1_ + x__65_1_
 + x__66_1_ + x__67_1_ + x__68_1_ + x__69_1_ + x__6_1_ + x__70_1_ + x__7_1_
 + x__8_1_ + x__9_1_ <= 1
_C144: x__0_2_ + x__10_2_ + x__11_2_ + x__12_2_ + x__13_2_ + x__14_2_
 + x__15_2_ + x__16_2_ + x__17_2_ + x__18_2_ + x__19_2_ + x__1_2_ + x__20_2_
 + x__21_2_ + x__22_2_ + x__23_2_ + x__24_2_ + x__25_2_ + x__26_2_ + x__27_2_
 + x__28_2_ + x__29_2_ + x__2_2_ + x__30_2_ + x__31_2_ + x__32_2_ + x__33_2_
 + x__34_2_ + x__35_2_ + x__36_2_ + x__37_2_ + x__38_2_ + x__39_2_ + x__3_2_
 + x__40_2_ + x__41_2_ + x__42_2_ + x__43_2_ + x__44_2_ + x__45_2_ + x__46_2_
 + x__47_2_ + x__48_2_ + x__49_2_ + x__4_2_ + x__50_2_ + x__51_2_ + x__52_2_
 + x__53_2_ + x__54_2_ + x__55_2_ + x__56_2_ + x__57_2_ + x__58_2_ + x__59_2_
 + x__5_2_ + x__60_2_ + x__61_2_ + x__62_2_ + x__63_2_ + x__64_2_ + x__65_2_
 + x__66_2_ + x__67_2_ + x__68_2_ + x__69_2_ + x__6_2_ + x__70_2_ + x__7_2_
 + x__8_2_ + x__9_2_ <= 435
_C145: x__0_3_ + x__10_3_ + x__11_3_ + x__12_3_ + x__13_3_ + x__14_3_
 + x__15_3_ + x__16_3_ + x__17_3_ + x__18_3_ + x__19_3_ + x__1_3_ + x__20_3_
 + x__21_3_ + x__22_3_ + x__23_3_ + x__24_3_ + x__25_3_ + x__26_3_ + x__27_3_
 + x__28_3_ + x__29_3_ + x__2_3_ + x__30_3_ + x__31_3_ + x__32_3_ + x__33_3_
 + x__34_3_ + x__35_3_ + x__36_3_ + x__37_3_ + x__38_3_ + x__39_3_ + x__3_3_
 + x__40_3_ + x__41_3_ + x__42_3_ + x__43_3_ + x__44_3_ + x__45_3_ + x__46_3_
 + x__47_3_ + x__48_3_ + x__49_3_ + x__4_3_ + x__50_3_ + x__51_3_ + x__52_3_
 + x__53_3_ + x__54_3_ + x__55_3_ + x__56_3_ + x__57_3_ + x__58_3_ + x__59_3_
 + x__5_3_ + x__60_3_ + x__61_3_ + x__62_3_ + x__63_3_ + x__64_3_ + x__65_3_
 + x__66_3_ + x__67_3_ + x__68_3_ + x__69_3_ + x__6_3_ + x__70_3_ + x__7_3_
 + x__8_3_ + x__9_3_ <= 202275
_C146: x__0_4_ + x__10_4_ + x__11_4_ + x__12_4_ + x__13_4_ + x__14_4_
 + x__15_4_ + x__16_4_ + x__17_4_ + x__18_4_ + x__19_4_ + x__1_4_ + x__20_4_
 + x__21_4_ + x__22_4_ + x__23_4_ + x__24_4_ + x__25_4_ + x__26_4_ + x__27_4_
 + x__28_4_ + x__29_4_ + x__2_4_ + x__30_4_ + x__31_4_ + x__32_4_ + x__33_4_
 + x__34_4_ + x__35_4_ + x__36_4_ + x__37_4_ + x__38_4_ + x__39_4_ + x__3_4_
 + x__40_4_ + x__41_4_ + x__42_4_ + x__43_4_ + x__44_4_ + x__45_4_ + x__46_4_
 + x__47_4_ + x__48_4_ + x__49_4_ + x__4_4_ + x__50_4_ + x__51_4_ + x__52_4_
 + x__53_4_ + x__54_4_ + x__55_4_ + x__56_4_ + x__57_4_ + x__58_4_ + x__59_4_
 + x__5_4_ + x__60_4_ + x__61_4_ + x__62_4_ + x__63_4_ + x__64_4_ + x__65_4_
 + x__66_4_ + x__67_4_ + x__68_4_ + x__69_4_ + x__6_4_ + x__70_4_ + x__7_4_
 + x__8_4_ + x__9_4_ <= 100328400
_C147: x__0_5_ + x__10_5_ + x__11_5_ + x__12_5_ + x__13_5_ + x__14_5_
 + x__15_5_ + x__16_5_ + x__17_5_ + x__18_5_ + x__19_5_ + x__1_5_ + x__20_5_
 + x__21_5_ + x__22_5_ + x__23_5_ + x__24_5_ + x__25_5_ + x__26_5_ + x__27_5_
 + x__28_5_ + x__29_5_ + x__2_5_ + x__30_5_ + x__31_5_ + x__32_5_ + x__33_5_
 + x__34_5_ + x__35_5_ + x__36_5_ + x__37_5_ + x__38_5_ + x__39_5_ + x__3_5_
 + x__40_5_ + x__41_5_ + x__42_5_ + x__43_5_ + x__44_5_ + x__45_5_ + x__46_5_
 + x__47_5_ + x__48_5_ + x__49_5_ + x__4_5_ + x__50_5_ + x__51_5_ + x__52_5_
 + x__53_5_ + x__54_5_ + x__55_5_ + x__56_5_ + x__57_5_ + x__58_5_ + x__59_5_
 + x__5_5_ + x__60_5_ + x__61_5_ + x__62_5_ + x__63_5_ + x__64_5_ + x__65_5_
 + x__66_5_ + x__67_5_ + x__68_5_ + x__69_5_ + x__6_5_ + x__70_5_ + x__7_5_
 + x__8_5_ + x__9_5_ <= 52973395200
_C148: x__0_6_ + x__10_6_ + x__11_6_ + x__12_6_ + x__13_6_ + x__14_6_
 + x__15_6_ + x__16_6_ + x__17_6_ + x__18_6_ + x__19_6_ + x__1_6_ + x__20_6_
 + x__21_6_ + x__22_6_ + x__23_6_ + x__24_6_ + x__25_6_ + x__26_6_ + x__27_6_
 + x__28_6_ + x__29_6_ + x__2_6_ + x__30_6_ + x__31_6_ + x__32_6_ + x__33_6_
 + x__34_6_ + x__35_6_ + x__36_6_ + x__37_6_ + x__38_6_ + x__39_6_ + x__3_6_
 + x__40_6_ + x__41_6_ + x__42_6_ + x__43_6_ + x__44_6_ + x__45_6_ + x__46_6_
 + x__47_6_ + x__48_6_ + x__49_6_ + x__4_6_ + x__50_6_ + x__51_6_ + x__52_6_
 + x__53_6_ + x__54_6_ + x__55_6_ + x__56_6_ + x__57_6_ + x__58_6_ + x__59_6_
 + x__5_6_ + x__60_6_ + x__61_6_ + x__62_6_ + x__63_6_ + x__64_6_ + x__65_6_
 + x__66_6_ + x__67_6_ + x__68_6_ + x__69_6_ + x__6_6_ + x__70_6_ + x__7_6_
 + x__8_6_ + x__9_6_ <= 2.97180747072e+13
_C149: x__0_7_ + x__10_7_ + x__11_7_ + x__12_7_ + x__13_7_ + x__14_7_
 + x__15_7_ + x__16_7_ + x__17_7_ + x__18_7_ + x__19_7_ + x__1_7_ + x__20_7_
 + x__21_7_ + x__22_7_ + x__23_7_ + x__24_7_ + x__25_7_ + x__26_7_ + x__27_7_
 + x__28_7_ + x__29_7_ + x__2_7_ + x__30_7_ + x__31_7_ + x__32_7_ + x__33_7_
 + x__34_7_ + x__35_7_ + x__36_7_ + x__37_7_ + x__38_7_ + x__39_7_ + x__3_7_
 + x__40_7_ + x__41_7_ + x__42_7_ + x__43_7_ + x__44_7_ + x__45_7_ + x__46_7_
 + x__47_7_ + x__48_7_ + x__49_7_ + x__4_7_ + x__50_7_ + x__51_7_ + x__52_7_
 + x__53_7_ + x__54_7_ + x__55_7_ + x__56_7_ + x__57_7_ + x__58_7_ + x__59_7_
 + x__5_7_ + x__60_7_ + x__61_7_ + x__62_7_ + x__63_7_ + x__64_7_ + x__65_7_
 + x__66_7_ + x__67_7_ + x__68_7_ + x__69_7_ + x__6_7_ + x__70_7_ + x__7_7_
 + x__8_7_ + x__9_7_ <= 1.76822544508e+16
_C15: x__7_1_ + x__7_2_ + x__7_3_ + x__7_4_ + x__7_5_ + x__7_6_ + x__7_7_
 + x__7_8_ + x__7_9_ = 1198774720
_C150: x__0_8_ + x__10_8_ + x__11_8_ + x__12_8_ + x__13_8_ + x__14_8_
 + x__15_8_ + x__16_8_ + x__17_8_ + x__18_8_ + x__19_8_ + x__1_8_ + x__20_8_
 + x__21_8_ + x__22_8_ + x__23_8_ + x__24_8_ + x__25_8_ + x__26_8_ + x__27_8_
 + x__28_8_ + x__29_8_ + x__2_8_ + x__30_8_ + x__31_8_ + x__32_8_ + x__33_8_
 + x__34_8_ + x__35_8_ + x__36_8_ + x__37_8_ + x__38_8_ + x__39_8_ + x__3_8_
 + x__40_8_ + x__41_8_ + x__42_8_ + x__43_8_ + x__44_8_ + x__45_8_ + x__46_8_
 + x__47_8_ + x__48_8_ + x__49_8_ + x__4_8_ + x__50_8_ + x__51_8_ + x__52_8_
 + x__53_8_ + x__54_8_ + x__55_8_ + x__56_8_ + x__57_8_ + x__58_8_ + x__59_8_
 + x__5_8_ + x__60_8_ + x__61_8_ + x__62_8_ + x__63_8_ + x__64_8_ + x__65_8_
 + x__66_8_ + x__67_8_ + x__68_8_ + x__69_8_ + x__6_8_ + x__70_8_ + x__7_8_
 + x__8_8_ + x__9_8_ <= 1.1139820304e+19
_C151: x__0_9_ + x__10_9_ + x__11_9_ + x__12_9_ + x__13_9_ + x__14_9_
 + x__15_9_ + x__16_9_ + x__17_9_ + x__18_9_ + x__19_9_ + x__1_9_ + x__20_9_
 + x__21_9_ + x__22_9_ + x__23_9_ + x__24_9_ + x__25_9_ + x__26_9_ + x__27_9_
 + x__28_9_ + x__29_9_ + x__2_9_ + x__30_9_ + x__31_9_ + x__32_9_ + x__33_9_
 + x__34_9_ + x__35_9_ + x__36_9_ + x__37_9_ + x__38_9_ + x__39_9_ + x__3_9_
 + x__40_9_ + x__41_9_ + x__42_9_ + x__43_9_ + x__44_9_ + x__45_9_ + x__46_9_
 + x__47_9_ + x__48_9_ + x__49_9_ + x__4_9_ + x__50_9_ + x__51_9_ + x__52_9_
 + x__53_9_ + x__54_9_ + x__55_9_ + x__56_9_ + x__57_9_ + x__58_9_ + x__59_9_
 + x__5_9_ + x__60_9_ + x__61_9_ + x__62_9_ + x__63_9_ + x__64_9_ + x__65_9_
 + x__66_9_ + x__67_9_ + x__68_9_ + x__69_9_ + x__6_9_ + x__70_9_ + x__7_9_
 + x__8_9_ + x__9_9_ <= 7.41912032246e+21
_C152: x__E_0_ <= 1
_C153: x__E_1_ <= 10
_C154: x__E_2_ <= 24
_C155: x__E_3_ <= 38
_C156: x__E_4_ <= 52
_C157: x__E_5_ <= 66
_C158: x__E_6_ <= 80
_C159: x__E_7_ <= 94
_C16: x__7_1_ + 2 x__7_2_ + 3 x__7_3_ + 4 x__7_4_ + 5 x__7_5_ + 6 x__7_6_
 + 7 x__7_7_ + 8 x__7_8_ + 9 x__7_9_ - 1198774720 x__E_7_ = 0
_C160: x__E_8_ <= 108
_C161: x__E_9_ <= 122
_C162: x__E_10_ <= 136
_C163: x__E_11_ <= 150
_C164: x__E_12_ <= 164
_C165: x__E_13_ <= 178
_C166: x__E_14_ <= 192
_C167: x__E_15_ <= 206
_C168: x__E_16_ <= 220
_C169: x__E_17_ <= 234
_C17: x__8_1_ + x__8_2_ + x__8_3_ + x__8_4_ + x__8_5_ + x__8_6_ + x__8_7_
 + x__8_8_ + x__8_9_ = 9440350920
_C170: x__E_18_ <= 248
_C171: x__E_19_ <= 262
_C172: x__E_20_ <= 276
_C173: x__E_21_ <= 290
_C174: x__E_22_ <= 304
_C175: x__E_23_ <= 318
_C176: x__E_24_ <= 332
_C177: x__E_25_ <= 346
_C178: x__E_26_ <= 360
_C179: x__E_27_ <= 374
_C18: x__8_1_ + 2 x__8_2_ + 3 x__8_3_ + 4 x__8_4_ + 5 x__8_5_ + 6 x__8_6_
 + 7 x__8_7_ + 8 x__8_8_ + 9 x__8_9_ - 9440350920 x__E_8_ = 0
_C180: x__E_28_ <= 388
_C181: x__E_29_ <= 402
_C182: x__E_30_ <= 416
_C183: x__E_31_ <= 430
_C184: x__E_32_ <= 444
_C185: x__E_33_ <= 458
_C186: x__E_34_ <= 472
_C187: x__E_69_ - x__E_70_ <= 14
_C188: x__E_68_ - x__E_70_ <= 28
_C189: x__E_67_ - x__E_70_ <= 42
_C19: x__9_1_ + x__9_2_ + x__9_3_ + x__9_4_ + x__9_5_ + x__9_6_ + x__9_7_
 + x__9_8_ + x__9_9_ = 65033528560
_C190: x__E_66_ - x__E_70_ <= 56
_C191: x__E_65_ - x__E_70_ <= 70
_C192: x__E_64_ - x__E_70_ <= 84
_C193: x__E_63_ - x__E_70_ <= 98
_C194: x__E_62_ - x__E_70_ <= 112
_C195: x__E_61_ - x__E_70_ <= 126
_C196: x__E_60_ - x__E_70_ <= 140
_C197: x__E_59_ - x__E_70_ <= 154
_C198: x__E_58_ - x__E_70_ <= 168
_C199: x__E_57_ - x__E_70_ <= 182
_C2: x__0_1_ + 2 x__0_2_ + 3 x__0_3_ + 4 x__0_4_ + 5 x__0_5_ + 6 x__0_6_
 + 7 x__0_7_ + 8 x__0_8_ + 9 x__0_9_ - x__E_0_ = 0
_C20: x__9_1_ + 2 x__9_2_ + 3 x__9_3_ + 4 x__9_4_ + 5 x__9_5_ + 6 x__9_6_
 + 7 x__9_7_ + 8 x__9_8_ + 9 x__9_9_ - 65033528560 x__E_9_ = 0
_C200: x__E_56_ - x__E_70_ <= 196
_C201: x__E_55_ - x__E_70_ <= 210
_C202: x__E_54_ - x__E_70_ <= 224
_C203: x__E_53_ - x__E_70_ <= 238
_C204: x__E_52_ - x__E_70_ <= 252
_C205: x__E_51_ - x__E_70_ <= 266
_C206: x__E_50_ - x__E_70_ <= 280
_C207: x__E_49_ - x__E_70_ <= 294
_C208: x__E_48_ - x__E_70_ <= 308
_C209: x__E_47_ - x__E_70_ <= 322
_C21: x__10_1_ + x__10_2_ + x__10_3_ + x__10_4_ + x__10_5_ + x__10_6_
 + x__10_7_ + x__10_8_ + x__10_9_ = 396704524216
_C210: x__E_46_ - x__E_70_ <= 336
_C211: x__E_45_ - x__E_70_ <= 350
_C212: x__E_44_ - x__E_70_ <= 364
_C213: x__E_43_ - x__E_70_ <= 378
_C214: x__E_42_ - x__E_70_ <= 392
_C215: x__E_41_ - x__E_70_ <= 406
_C216: x__E_40_ - x__E_70_ <= 420
_C217: x__E_39_ - x__E_70_ <= 434
_C218: x__E_38_ - x__E_70_ <= 448
_C219: x__E_37_ - x__E_70_ <= 462
_C22: x__10_1_ + 2 x__10_2_ + 3 x__10_3_ + 4 x__10_4_ + 5 x__10_5_
 + 6 x__10_6_ + 7 x__10_7_ + 8 x__10_8_ + 9 x__10_9_ - 396704524216 x__E_10_
 = 0
_C220: x__E_36_ - x__E_70_ <= 476
_C23: x__11_1_ + x__11_2_ + x__11_3_ + x__11_4_ + x__11_5_ + x__11_6_
 + x__11_7_ + x__11_8_ + x__11_9_ = 2.16384285936e+12
_C24: x__11_1_ + 2 x__11_2_ + 3 x__11_3_ + 4 x__11_4_ + 5 x__11_5_
 + 6 x__11_6_ + 7 x__11_7_ + 8 x__11_8_ + 9 x__11_9_
 - 2.16384285936e+12 x__E_11_ = 0
_C25: x__12_1_ + x__12_2_ + x__12_3_ + x__12_4_ + x__12_5_ + x__12_6_
 + x__12_7_ + x__12_8_ + x__12_9_ = 1.06388940585e+13
_C26: x__12_1_ + 2 x__12_2_ + 3 x__12_3_ + 4 x__12_4_ + 5 x__12_5_
 + 6 x__12_6_ + 7 x__12_7_ + 8 x__12_8_ + 9 x__12_9_
 - 1.06388940585e+13 x__E_12_ = 0
_C27: x__13_1_ + x__13_2_ + x__13_3_ + x__13_4_ + x__13_5_ + x__13_6_
 + x__13_7_ + x__13_8_ + x__13_9_ = 4.74658350303e+13
_C28: x__13_1_ + 2 x__13_2_ + 3 x__13_3_ + 4 x__13_4_ + 5 x__13_5_
 + 6 x__13_6_ + 7 x__13_7_ + 8 x__13_8_ + 9 x__13_9_
 - 4.74658350303e+13 x__E_13_ = 0
_C29: x__14_1_ + x__14_2_ + x__14_3_ + x__14_4_ + x__14_5_ + x__14_6_
 + x__14_7_ + x__14_8_ + x__14_9_ = 1.93253756909e+14
_C3: x__1_1_ + x__1_2_ + x__1_3_ + x__1_4_ + x__1_5_ + x__1_6_ + x__1_7_
 + x__1_8_ + x__1_9_ = 70
_C30: x__14_1_ + 2 x__14_2_ + 3 x__14_3_ + 4 x__14_4_ + 5 x__14_5_
 + 6 x__14_6_ + 7 x__14_7_ + 8 x__14_8_ + 9 x__14_9_
 - 1.93253756909e+14 x__E_14_ = 0
_C31: x__15_1_ + x__15_2_ + x__15_3_ + x__15_4_ + x__15_5_ + x__15_6_
 + x__15_7_ + x__15_8_ + x__15_9_ = 7.21480692461e+14
_C32: x__15_1_ + 2 x__15_2_ + 3 x__15_3_ + 4 x__15_4_ + 5 x__15_5_
 + 6 x__15_6_ + 7 x__15_7_ + 8 x__15_8_ + 9 x__15_9_
 - 7.21480692461e+14 x__E_15_ = 0
_C33: x__16_1_ + x__16_2_ + x__16_3_ + x__16_4_ + x__16_5_ + x__16_6_
 + x__16_7_ + x__16_8_ + x__16_9_ = 2.48008988033e+15
_C34: x__16_1_ + 2 x__16_2_ + 3 x__16_3_ + 4 x__16_4_ + 5 x__16_5_
 + 6 x__16_6_ + 7 x__16_7_ + 8 x__16_8_ + 9 x__16_9_
 - 2.48008988033e+15 x__E_16_ = 0
_C35: x__17_1_ + x__17_2_ + x__17_3_ + x__17_4_ + x__17_5_ + x__17_6_
 + x__17_7_ + x__17_8_ + x__17_9_ = 7.87793256106e+15
_C36: x__17_1_ + 2 x__17_2_ + 3 x__17_3_ + 4 x__17_4_ + 5 x__17_5_
 + 6 x__17_6_ + 7 x__17_7_ + 8 x__17_8_ + 9 x__17_9_
 - 7.87793256106e+15 x__E_17_ = 0
_C37: x__18_1_ + x__18_2_ + x__18_3_ + x__18_4_ + x__18_5_ + x__18_6_
 + x__18_7_ + x__18_8_ + x__18_9_ = 2.31961347631e+16
_C38: x__18_1_ + 2 x__18_2_ + 3 x__18_3_ + 4 x__18_4_ + 5 x__18_5_
 + 6 x__18_6_ + 7 x__18_7_ + 8 x__18_8_ + 9 x__18_9_
 - 2.31961347631e+16 x__E_18_ = 0
_C39: x__19_1_ + x__19_2_ + x__19_3_ + x__19_4_ + x__19_5_ + x__19_6_
 + x__19_7_ + x__19_8_ + x__19_9_ = 6.34841582991e+16
_C4: x__1_1_ + 2 x__1_2_ + 3 x__1_3_ + 4 x__1_4_ + 5 x__1_5_ + 6 x__1_6_
 + 7 x__1_7_ + 8 x__1_8_ + 9 x__1_9_ - 70 x__E_1_ = 0
_C40: x__19_1_ + 2 x__19_2_ + 3 x__19_3_ + 4 x__19_4_ + 5 x__19_5_
 + 6 x__19_6_ + 7 x__19_7_ + 8 x__19_8_ + 9 x__19_9_
 - 6.34841582991e+16 x__E_19_ = 0
_C41: x__20_1_ + x__20_2_ + x__20_3_ + x__20_4_ + x__20_5_ + x__20_6_
 + x__20_7_ + x__20_8_ + x__20_9_ = 1.61884603663e+17
_C42: x__20_1_ + 2 x__20_2_ + 3 x__20_3_ + 4 x__20_4_ + 5 x__20_5_
 + 6 x__20_6_ + 7 x__20_7_ + 8 x__20_8_ + 9 x__20_9_
 - 1.61884603663e+17 x__E_20_ = 0
_C43: x__21_1_ + x__21_2_ + x__21_3_ + x__21_4_ + x__21_5_ + x__21_6_
 + x__21_7_ + x__21_8_ + x__21_9_ = 3.8543953253e+17
_C44: x__21_1_ + 2 x__21_2_ + 3 x__21_3_ + 4 x__21_4_ + 5 x__21_5_
 + 6 x__21_6_ + 7 x__21_7_ + 8 x__21_8_ + 9 x__21_9_
 - 3.8543953253e+17 x__E_21_ = 0
_C45: x__22_1_ + x__22_2_ + x__22_3_ + x__22_4_ + x__22_5_ + x__22_6_
 + x__22_7_ + x__22_8_ + x__22_9_ = 8.58478958817e+17
_C46: x__22_1_ + 2 x__22_2_ + 3 x__22_3_ + 4 x__22_4_ + 5 x__22_5_
 + 6 x__22_6_ + 7 x__22_7_ + 8 x__22_8_ + 9 x__22_9_
 - 8.58478958817e+17 x__E_22_ = 0
_C47: x__23_1_ + x__23_2_ + x__23_3_ + x__23_4_ + x__23_5_ + x__23_6_
 + x__23_7_ + x__23_8_ + x__23_9_ = 1.79160826188e+18
_C48: x__23_1_ + 2 x__23_2_ + 3 x__23_3_ + 4 x__23_4_ + 5 x__23_5_
 + 6 x__23_6_ + 7 x__23_7_ + 8 x__23_8_ + 9 x__23_9_
 - 1.79160826188e+18 x__E_23_ = 0
_C49: x__24_1_ + x__24_2_ + x__24_3_ + x__24_4_ + x__24_5_ + x__24_6_
 + x__24_7_ + x__24_8_ + x__24_9_ = 3.50856617951e+18
_C5: x__2_1_ + x__2_2_ + x__2_3_ + x__2_4_ + x__2_5_ + x__2_6_ + x__2_7_
 + x__2_8_ + x__2_9_ = 2415
_C50: x__24_1_ + 2 x__24_2_ + 3 x__24_3_ + 4 x__24_4_ + 5 x__24_5_
 + 6 x__24_6_ + 7 x__24_7_ + 8 x__24_8_ + 9 x__24_9_
 - 3.50856617951e+18 x__E_24_ = 0
_C51: x__25_1_ + x__25_2_ + x__25_3_ + x__25_4_ + x__25_5_ + x__25_6_
 + x__25_7_ + x__25_8_ + x__25_9_ = 6.4557617703e+18
_C52: x__25_1_ + 2 x__25_2_ + 3 x__25_3_ + 4 x__25_4_ + 5 x__25_5_
 + 6 x__25_6_ + 7 x__25_7_ + 8 x__25_8_ + 9 x__25_9_
 - 6.4557617703e+18 x__E_25_ = 0
_C53: x__26_1_ + x__26_2_ + x__26_3_ + x__26_4_ + x__26_5_ + x__26_6_
 + x__26_7_ + x__26_8_ + x__26_9_ = 1.11734338332e+19
_C54: x__26_1_ + 2 x__26_2_ + 3 x__26_3_ + 4 x__26_4_ + 5 x__26_5_
 + 6 x__26_6_ + 7 x__26_7_ + 8 x__26_8_ + 9 x__26_9_
 - 1.11734338332e+19 x__E_26_ = 0
_C55: x__27_1_ + x__27_2_ + x__27_3_ + x__27_4_ + x__27_5_ + x__27_6_
 + x__27_7_ + x__27_8_ + x__27_9_ = 1.82085588393e+19
_C56: x__27_1_ + 2 x__27_2_ + 3 x__27_3_ + 4 x__27_4_ + 5 x__27_5_
 + 6 x__27_6_ + 7 x__27_7_ + 8 x__27_8_ + 9 x__27_9_
 - 1.82085588393e+19 x__E_27_ = 0
_C57: x__28_1_ + x__28_2_ + x__28_3_ + x__28_4_ + x__28_5_ + x__28_6_
 + x__28_7_ + x__28_8_ + x__28_9_ = 2.79631439318e+19
_C58: x__28_1_ + 2 x__28_2_ + 3 x__28_3_ + 4 x__28_4_ + 5 x__28_5_
 + 6 x__28_6_ + 7 x__28_7_ + 8 x__28_8_ + 9 x__28_9_
 - 2.79631439318e+19 x__E_28_ = 0
_C59: x__29_1_ + x__29_2_ + x__29_3_ + x__29_4_ + x__29_5_ + x__29_6_
 + x__29_7_ + x__29_8_ + x__29_9_ = 4.0498346384e+19
_C6: x__2_1_ + 2 x__2_2_ + 3 x__2_3_ + 4 x__2_4_ + 5 x__2_5_ + 6 x__2_6_
 + 7 x__2_7_ + 8 x__2_8_ + 9 x__2_9_ - 2415 x__E_2_ = 0
_C60: x__29_1_ + 2 x__29_2_ + 3 x__29_3_ + 4 x__29_4_ + 5 x__29_5_
 + 6 x__29_6_ + 7 x__29_7_ + 8 x__29_8_ + 9 x__29_9_
 - 4.0498346384e+19 x__E_29_ = 0
_C61: x__30_1_ + x__30_2_ + x__30_3_ + x__30_4_ + x__30_5_ + x__30_6_
 + x__30_7_ + x__30_8_ + x__30_9_ = 5.53477400581e+19
_C62: x__30_1_ + 2 x__30_2_ + 3 x__30_3_ + 4 x__30_4_ + 5 x__30_5_
 + 6 x__30_6_ + 7 x__30_7_ + 8 x__30_8_ + 9 x__30_9_
 - 5.53477400581e+19 x__E_30_ = 0
_C63: x__31_1_ + x__31_2_ + x__31_3_ + x__31_4_ + x__31_5_ + x__31_6_
 + x__31_7_ + x__31_8_ + x__31_9_ = 7.14164387847e+19
_C64: x__31_1_ + 2 x__31_2_ + 3 x__31_3_ + 4 x__31_4_ + 5 x__31_5_
 + 6 x__31_6_ + 7 x__31_7_ + 8 x__31_8_ + 9 x__31_9_
 - 7.14164387847e+19 x__E_31_ = 0
_C65: x__32_1_ + x__32_2_ + x__32_3_ + x__32_4_ + x__32_5_ + x__32_6_
 + x__32_7_ + x__32_8_ + x__32_9_ = 8.70387847689e+19
_C66: x__32_1_ + 2 x__32_2_ + 3 x__32_3_ + 4 x__32_4_ + 5 x__32_5_
 + 6 x__32_6_ + 7 x__32_7_ + 8 x__32_8_ + 9 x__32_9_
 - 8.70387847689e+19 x__E_32_ = 0
_C67: x__33_1_ + x__33_2_ + x__33_3_ + x__33_4_ + x__33_5_ + x__33_6_
 + x__33_7_ + x__33_8_ + x__33_9_ = 1.00226479431e+20
_C68: x__33_1_ + 2 x__33_2_ + 3 x__33_3_ + 4 x__33_4_ + 5 x__33_5_
 + 6 x__33_6_ + 7 x__33_7_ + 8 x__33_8_ + 9 x__33_9_
 - 1.00226479431e+20 x__E_33_ = 0
_C69: x__34_1_ + x__34_2_ + x__34_3_ + x__34_4_ + x__34_5_ + x__34_6_
 + x__34_7_ + x__34_8_ + x__34_9_ = 1.09069992322e+20
_C7: x__3_1_ + x__3_2_ + x__3_3_ + x__3_4_ + x__3_5_ + x__3_6_ + x__3_7_
 + x__3_8_ + x__3_9_ = 54740
_C70: x__34_1_ + 2 x__34_2_ + 3 x__34_3_ + 4 x__34_4_ + 5 x__34_5_
 + 6 x__34_6_ + 7 x__34_7_ + 8 x__34_8_ + 9 x__34_9_
 - 1.09069992322e+20 x__E_34_ = 0
_C71: x__35_1_ + x__35_2_ + x__35_3_ + x__35_4_ + x__35_5_ + x__35_6_
 + x__35_7_ + x__35_8_ + x__35_9_ = 1.12186277817e+20
_C72: x__35_1_ + 2 x__35_2_ + 3 x__35_3_ + 4 x__35_4_ + 5 x__35_5_
 + 6 x__35_6_ + 7 x__35_7_ + 8 x__35_8_ + 9 x__35_9_
 - 1.12186277817e+20 x__E_35_ = 0
_C73: x__36_1_ + x__36_2_ + x__36_3_ + x__36_4_ + x__36_5_ + x__36_6_
 + x__36_7_ + x__36_8_ + x__36_9_ = 1.09069992322e+20
_C74: x__36_1_ + 2 x__36_2_ + 3 x__36_3_ + 4 x__36_4_ + 5 x__36_5_
 + 6 x__36_6_ + 7 x__36_7_ + 8 x__36_8_ + 9 x__36_9_
 - 1.09069992322e+20 x__E_36_ = 0
_C75: x__37_1_ + x__37_2_ + x__37_3_ + x__37_4_ + x__37_5_ + x__37_6_
 + x__37_7_ + x__37_8_ + x__37_9_ = 1.00226479431e+20
_C76: x__37_1_ + 2 x__37_2_ + 3 x__37_3_ + 4 x__37_4_ + 5 x__37_5_
 + 6 x__37_6_ + 7 x__37_7_ + 8 x__37_8_ + 9 x__37_9_
 - 1.00226479431e+20 x__E_37_ = 0
_C77: x__38_1_ + x__38_2_ + x__38_3_ + x__38_4_ + x__38_5_ + x__38_6_
 + x__38_7_ + x__38_8_ + x__38_9_ = 8.70387847689e+19
_C78: x__38_1_ + 2 x__38_2_ + 3 x__38_3_ + 4 x__38_4_ + 5 x__38_5_
 + 6 x__38_6_ + 7 x__38_7_ + 8 x__38_8_ + 9 x__38_9_
 - 8.70387847689e+19 x__E_38_ = 0
_C79: x__39_1_ + x__39_2_ + x__39_3_ + x__39_4_ + x__39_5_ + x__39_6_
 + x__39_7_ + x__39_8_ + x__39_9_ = 7.14164387847e+19
_C8: x__3_1_ + 2 x__3_2_ + 3 x__3_3_ + 4 x__3_4_ + 5 x__3_5_ + 6 x__3_6_
 + 7 x__3_7_ + 8 x__3_8_ + 9 x__3_9_ - 54740 x__E_3_ = 0
_C80: x__39_1_ + 2 x__39_2_ + 3 x__39_3_ + 4 x__39_4_ + 5 x__39_5_
 + 6 x__39_6_ + 7 x__39_7_ + 8 x__39_8_ + 9 x__39_9_
 - 7.14164387847e+19 x__E_39_ = 0
_C81: x__40_1_ + x__40_2_ + x__40_3_ + x__40_4_ + x__40_5_ + x__40_6_
 + x__40_7_ + x__40_8_ + x__40_9_ = 5.53477400581e+19
_C82: x__40_1_ + 2 x__40_2_ + 3 x__40_3_ + 4 x__40_4_ + 5 x__40_5_
 + 6 x__40_6_ + 7 x__40_7_ + 8 x__40_8_ + 9 x__40_9_
 - 5.53477400581e+19 x__E_40_ = 0
_C83: x__41_1_ + x__41_2_ + x__41_3_ + x__41_4_ + x__41_5_ + x__41_6_
 + x__41_7_ + x__41_8_ + x__41_9_ = 4.0498346384e+19
_C84: x__41_1_ + 2 x__41_2_ + 3 x__41_3_ + 4 x__41_4_ + 5 x__41_5_
 + 6 x__41_6_ + 7 x__41_7_ + 8 x__41_8_ + 9 x__41_9_
 - 4.0498346384e+19 x__E_41_ = 0
_C85: x__42_1_ + x__42_2_ + x__42_3_ + x__42_4_ + x__42_5_ + x__42_6_
 + x__42_7_ + x__42_8_ + x__42_9_ = 2.79631439318e+19
_C86: x__42_1_ + 2 x__42_2_ + 3 x__42_3_ + 4 x__42_4_ + 5 x__42_5_
 + 6 x__42_6_ + 7 x__42_7_ + 8 x__42_8_ + 9 x__42_9_
 - 2.79631439318e+19 x__E_42_ = 0
_C87: x__43_1_ + x__43_2_ + x__43_3_ + x__43_4_ + x__43_5_ + x__43_6_
 + x__43_7_ + x__43_8_ + x__43_9_ = 1.82085588393e+19
_C88: x__43_1_ + 2 x__43_2_ + 3 x__43_3_ + 4 x__43_4_ + 5 x__43_5_
 + 6 x__43_6_ + 7 x__43_7_ + 8 x__43_8_ + 9 x__43_9_
 - 1.82085588393e+19 x__E_43_ = 0
_C89: x__44_1_ + x__44_2_ + x__44_3_ + x__44_4_ + x__44_5_ + x__44_6_
 + x__44_7_ + x__44_8_ + x__44_9_ = 1.11734338332e+19
_C9: x__4_1_ + x__4_2_ + x__4_3_ + x__4_4_ + x__4_5_ + x__4_6_ + x__4_7_
 + x__4_8_ + x__4_9_ = 916895
_C90: x__44_1_ + 2 x__44_2_ + 3 x__44_3_ + 4 x__44_4_ + 5 x__44_5_
 + 6 x__44_6_ + 7 x__44_7_ + 8 x__44_8_ + 9 x__44_9_
 - 1.11734338332e+19 x__E_44_ = 0
_C91: x__45_1_ + x__45_2_ + x__45_3_ + x__45_4_ + x__45_5_ + x__45_6_
 + x__45_7_ + x__45_8_ + x__45_9_ = 6.4557617703e+18
_C92: x__45_1_ + 2 x__45_2_ + 3 x__45_3_ + 4 x__45_4_ + 5 x__45_5_
 + 6 x__45_6_ + 7 x__45_7_ + 8 x__45_8_ + 9 x__45_9_
 - 6.4557617703e+18 x__E_45_ = 0
_C93: x__46_1_ + x__46_2_ + x__46_3_ + x__46_4_ + x__46_5_ + x__46_6_
 + x__46_7_ + x__46_8_ + x__46_9_ = 3.50856617951e+18
_C94: x__46_1_ + 2 x__46_2_ + 3 x__46_3_ + 4 x__46_4_ + 5 x__46_5_
 + 6 x__46_6_ + 7 x__46_7_ + 8 x__46_8_ + 9 x__46_9_
 - 3.50856617951e+18 x__E_46_ = 0
_C95: x__47_1_ + x__47_2_ + x__47_3_ + x__47_4_ + x__47_5_ + x__47_6_
 + x__47_7_ + x__47_8_ + x__47_9_ = 1.79160826188e+18
_C96: x__47_1_ + 2 x__47_2_ + 3 x__47_3_ + 4 x__47_4_ + 5 x__47_5_
 + 6 x__47_6_ + 7 x__47_7_ + 8 x__47_8_ + 9 x__47_9_
 - 1.79160826188e+18 x__E_47_ = 0
_C97: x__48_1_ + x__48_2_ + x__48_3_ + x__48_4_ + x__48_5_ + x__48_6_
 + x__48_7_ + x__48_8_ + x__48_9_ = 8.58478958817e+17
_C98: x__48_1_ + 2 x__48_2_ + 3 x__48_3_ + 4 x__48_4_ + 5 x__48_5_
 + 6 x__48_6_ + 7 x__48_7_ + 8 x__48_8_ + 9 x__48_9_
 - 8.58478958817e+17 x__E_48_ = 0
_C99: x__49_1_ + x__49_2_ + x__49_3_ + x__49_4_ + x__49_5_ + x__49_6_
 + x__49_7_ + x__49_8_ + x__49_9_ = 3.8543953253e+17
End
